/*********************************************
 * OPL 12.6.0.0 Data
 * Author: Adrian Rodriguez Bazaga, Pau Rodriguez Esmerats
 * Creation Date: 18/12/2017 at 23:50:01
 *********************************************/

maxConsec=5;
maxPresence=16;
maxHours=10;
minHours=4;
hours=24;
demand= [32 38 37 29 19 28 31 36 32 38 16 10 3 4 3 4 3 3 1 1 0 1 0 1  ];
nNurses=64;
